 vasp.5.3.3 18Dez12 (build Feb 04 2014 23:58:42) complex

 executed on             LinuxIFC date 2019.04.27  08:19:28

 INCAR:
 POTCAR:   PAW_PBE Al 04Jan2001
 POTCAR:   PAW_PBE Al 04Jan2001
   VRHFIN =Al: s2p1

   TITEL  = PAW_PBE Al 04Jan2001
   POMASS =   26.982; ZVAL   =    3.000    mass and valenz
   ENMAX  =  240.300; ENMIN  =  180.225 eV
   QCUT   =   -4.203; QGAM   =    8.405    optimization parameters

   Description
     l     E      TYP  RCUT    TYP  RCUT
     0   .000     23  1.900
     0   .000     23  1.900
     1   .000     23  1.900
     1  1.000     23  1.900
     2   .000      7  1.900

 PAW_PBE Al 04Jan2001                   :

 POSCAR: Al
  positions in direct lattice
 exchange correlation table for  LEXCH =        8
   RHO(1)=    0.500       N(1)  =     2000
   RHO(2)=  100.500       N(2)  =     4000

 VTST: version 3.0d, (01/09/14)

 CHAIN: initializing optimizer

 OPT: Using VASP Dynamics algorithm
 CHAIN: Read ICHAIN            0

 POSCAR: Al
  positions in direct lattice

 ion  position               nearest neighbor table
   1  0.000  0.000  0.000-

  LATTYP: Found a face centered cubic cell.
 ALAT       =     3.9750000000

  Lattice vectors:

 A1 = (   0.0000000000,   1.9875000000,   1.9875000000)
 A2 = (   1.9875000000,   0.0000000000,   1.9875000000)
 A3 = (   1.9875000000,   1.9875000000,   0.0000000000)

Analysis of symmetry for initial positions (statically):
 Subroutine PRICEL returns:
 Original cell was already a primitive cell.

 Routine SETGRP: Setting up the symmetry group for a
 face centered cubic supercell.

 Subroutine GETGRP returns: Found 48 space group operations
 (whereof 48 operations were pure point group operations)
 out of a pool of 48 trial point group operations.

The static configuration has the point symmetry O_h .

Analysis of symmetry for dynamics (positions and initial velocities):
 Subroutine PRICEL returns:
 Original cell was already a primitive cell.

 Routine SETGRP: Setting up the symmetry group for a
 face centered cubic supercell.

 Subroutine GETGRP returns: Found 48 space group operations
 (whereof 48 operations were pure point group operations)
 out of a pool of 48 trial point group operations.

The dynamic configuration has the point symmetry O_h .

 irot  :   1
 isymop:   1   0   0
           0   1   0
           0   0   1

 gtrans:     0.0000000     0.0000000     0.0000000

 ptrans:     0.0000000     0.0000000     0.0000000
 rotmap:
 (   1->   1)

[...]

 irot  :  48
 isymop:   0   0   1
           0   1   0
           1   0   0

 gtrans:     0.0000000     0.0000000     0.0000000

 ptrans:     0.0000000     0.0000000     0.0000000
 rotmap:
 (   1->   1)

 KPOINTS: Automatic generation

Automatic generation of k-mesh.
Space group operators:
 irot       det(A)        alpha          n_x          n_y          n_z        tau_x        tau_y        tau_z
    1     1.000000     0.000001     1.000000     0.000000     0.000000     0.000000     0.000000     0.000000
    2    -1.000000     0.000001     1.000000     0.000000     0.000000     0.000000     0.000000     0.000000
    3     1.000000   120.000000    -0.577350    -0.577350    -0.577350     0.000000     0.000000     0.000000
    4    -1.000000   120.000000    -0.577350    -0.577350    -0.577350     0.000000     0.000000     0.000000
    5     1.000000   120.000000     0.577350     0.577350     0.577350     0.000000     0.000000     0.000000
    6    -1.000000   120.000000     0.577350     0.577350     0.577350     0.000000     0.000000     0.000000
    7     1.000000    90.000000     0.000000     0.000000    -1.000000     0.000000     0.000000     0.000000
    8    -1.000000    90.000000     0.000000     0.000000    -1.000000     0.000000     0.000000     0.000000
    9     1.000000   180.000000     0.000000     0.707107     0.707107     0.000000     0.000000     0.000000
   10    -1.000000   180.000000     0.000000     0.707107     0.707107     0.000000     0.000000     0.000000
   11     1.000000    90.000000     0.000000     1.000000     0.000000     0.000000     0.000000     0.000000
   12    -1.000000    90.000000     0.000000     1.000000     0.000000     0.000000     0.000000     0.000000
   13     1.000000   180.000000     0.000000     0.000000     1.000000     0.000000     0.000000     0.000000
   14    -1.000000   180.000000     0.000000     0.000000     1.000000     0.000000     0.000000     0.000000
   15     1.000000   120.000000    -0.577350     0.577350     0.577350     0.000000     0.000000     0.000000
   16    -1.000000   120.000000    -0.577350     0.577350     0.577350     0.000000     0.000000     0.000000
   17     1.000000   120.000000    -0.577350     0.577350    -0.577350     0.000000     0.000000     0.000000
   18    -1.000000   120.000000    -0.577350     0.577350    -0.577350     0.000000     0.000000     0.000000
   19     1.000000    90.000000     0.000000     0.000000     1.000000     0.000000     0.000000     0.000000
   20    -1.000000    90.000000     0.000000     0.000000     1.000000     0.000000     0.000000     0.000000
   21     1.000000    90.000000    -1.000000     0.000000     0.000000     0.000000     0.000000     0.000000
   22    -1.000000    90.000000    -1.000000     0.000000     0.000000     0.000000     0.000000     0.000000
   23     1.000000   180.000000     0.707107     0.000000     0.707107     0.000000     0.000000     0.000000
   24    -1.000000   180.000000     0.707107     0.000000     0.707107     0.000000     0.000000     0.000000
   25     1.000000   120.000000     0.577350    -0.577350     0.577350     0.000000     0.000000     0.000000
   26    -1.000000   120.000000     0.577350    -0.577350     0.577350     0.000000     0.000000     0.000000
   27     1.000000   120.000000    -0.577350    -0.577350     0.577350     0.000000     0.000000     0.000000
   28    -1.000000   120.000000    -0.577350    -0.577350     0.577350     0.000000     0.000000     0.000000
   29     1.000000   180.000000     1.000000     0.000000     0.000000     0.000000     0.000000     0.000000
   30    -1.000000   180.000000     1.000000     0.000000     0.000000     0.000000     0.000000     0.000000
   31     1.000000    90.000000     0.000000    -1.000000     0.000000     0.000000     0.000000     0.000000
   32    -1.000000    90.000000     0.000000    -1.000000     0.000000     0.000000     0.000000     0.000000
   33     1.000000   180.000000     0.707107     0.707107     0.000000     0.000000     0.000000     0.000000
   34    -1.000000   180.000000     0.707107     0.707107     0.000000     0.000000     0.000000     0.000000
   35     1.000000    90.000000     1.000000     0.000000     0.000000     0.000000     0.000000     0.000000
   36    -1.000000    90.000000     1.000000     0.000000     0.000000     0.000000     0.000000     0.000000
   37     1.000000   120.000000     0.577350    -0.577350    -0.577350     0.000000     0.000000     0.000000
   38    -1.000000   120.000000     0.577350    -0.577350    -0.577350     0.000000     0.000000     0.000000
   39     1.000000   180.000000     0.000000     1.000000     0.000000     0.000000     0.000000     0.000000
   40    -1.000000   180.000000     0.000000     1.000000     0.000000     0.000000     0.000000     0.000000
   41     1.000000   120.000000     0.577350     0.577350    -0.577350     0.000000     0.000000     0.000000
   42    -1.000000   120.000000     0.577350     0.577350    -0.577350     0.000000     0.000000     0.000000
   43     1.000000   180.000000     0.000000    -0.707107     0.707107     0.000000     0.000000     0.000000
   44    -1.000000   180.000000     0.000000    -0.707107     0.707107     0.000000     0.000000     0.000000
   45     1.000000   180.000000     0.707107    -0.707107     0.000000     0.000000     0.000000     0.000000
   46    -1.000000   180.000000     0.707107    -0.707107     0.000000     0.000000     0.000000     0.000000
   47     1.000000   180.000000     0.707107     0.000000    -0.707107     0.000000     0.000000     0.000000
   48    -1.000000   180.000000     0.707107     0.000000    -0.707107     0.000000     0.000000     0.000000

 Subroutine IBZKPT returns following result:

 Found    220 irreducible k-points:

 Following reciprocal coordinates:
            Coordinates               Weight
  0.000000  0.000000  0.000000      1.000000
  0.052632  0.000000  0.000000      8.000000
  0.105263  0.000000  0.000000      8.000000
  0.157895  0.000000  0.000000      8.000000
  0.210526  0.000000  0.000000      8.000000
  0.263158  0.000000  0.000000      8.000000
  0.315789  0.000000  0.000000      8.000000
  0.368421  0.000000  0.000000      8.000000
  0.421053  0.000000  0.000000      8.000000
  0.473684  0.000000  0.000000      8.000000
  0.052632  0.052632  0.000000      6.000000
  0.105263  0.052632  0.000000     24.000000
  0.157895  0.052632  0.000000     24.000000
  0.210526  0.052632  0.000000     24.000000
  0.263158  0.052632  0.000000     24.000000
  0.315789  0.052632  0.000000     24.000000
  0.368421  0.052632  0.000000     24.000000
  0.421053  0.052632  0.000000     24.000000
  0.473684  0.052632  0.000000     24.000000
 -0.473684  0.052632  0.000000     24.000000
 -0.421053  0.052632  0.000000     24.000000
 -0.368421  0.052632  0.000000     24.000000
 -0.315789  0.052632  0.000000     24.000000
 -0.263158  0.052632  0.000000     24.000000
 -0.210526  0.052632  0.000000     24.000000
 -0.157895  0.052632  0.000000     24.000000
 -0.105263  0.052632  0.000000     24.000000
 -0.052632  0.052632  0.000000     12.000000
  0.105263  0.105263  0.000000      6.000000
  0.157895  0.105263  0.000000     24.000000
  0.210526  0.105263  0.000000     24.000000
  0.263158  0.105263  0.000000     24.000000
  0.315789  0.105263  0.000000     24.000000
  0.368421  0.105263  0.000000     24.000000
  0.421053  0.105263  0.000000     24.000000
  0.473684  0.105263  0.000000     24.000000
 -0.473684  0.105263  0.000000     24.000000
 -0.421053  0.105263  0.000000     24.000000
 -0.368421  0.105263  0.000000     24.000000
 -0.315789  0.105263  0.000000     24.000000
 -0.263158  0.105263  0.000000     24.000000
 -0.210526  0.105263  0.000000     24.000000
 -0.157895  0.105263  0.000000     24.000000
 -0.105263  0.105263  0.000000     12.000000
  0.157895  0.157895  0.000000      6.000000
  0.210526  0.157895  0.000000     24.000000
  0.263158  0.157895  0.000000     24.000000
  0.315789  0.157895  0.000000     24.000000
  0.368421  0.157895  0.000000     24.000000
  0.421053  0.157895  0.000000     24.000000
  0.473684  0.157895  0.000000     24.000000
 -0.473684  0.157895  0.000000     24.000000
 -0.421053  0.157895  0.000000     24.000000
 -0.368421  0.157895  0.000000     24.000000
 -0.315789  0.157895  0.000000     24.000000
 -0.263158  0.157895  0.000000     24.000000
 -0.210526  0.157895  0.000000     24.000000
 -0.157895  0.157895  0.000000     12.000000
  0.210526  0.210526  0.000000      6.000000
  0.263158  0.210526  0.000000     24.000000
[...]
 -0.421053  0.368421  0.157895     48.000000
 -0.368421  0.368421  0.157895     48.000000
 -0.315789  0.368421  0.157895     48.000000
 -0.263158  0.368421  0.157895     48.000000
[...]
  -0.31578947  0.36842105  0.15789474       0.007
  -0.26315789  0.36842105  0.15789474       0.007
  -0.21052632  0.36842105  0.15789474       0.003
  -0.42105263  0.42105263  0.15789474       0.003
  -0.36842105  0.42105263  0.15789474       0.007
  -0.31578947  0.42105263  0.15789474       0.007
  -0.26315789  0.42105263  0.15789474       0.003
  -0.36842105  0.47368421  0.15789474       0.003
  -0.31578947  0.47368421  0.15789474       0.003
  -0.36842105  0.42105263  0.21052632       0.003
  -0.31578947  0.42105263  0.21052632       0.007
  -0.31578947  0.47368421  0.21052632       0.003
  -0.26315789  0.47368421  0.21052632       0.003

 position of ions in fractional coordinates (direct lattice)
   0.00000000  0.00000000  0.00000000

 position of ions in cartesian coordinates  (Angst):
   0.00000000  0.00000000  0.00000000

 k-point  1 :   0.0000 0.0000 0.0000  plane waves:     137
 k-point  2 :   0.0526 0.0000 0.0000  plane waves:     138
 k-point  3 :   0.1053 0.0000 0.0000  plane waves:     147
 k-point  4 :   0.1579 0.0000 0.0000  plane waves:     150
 k-point  5 :   0.2105 0.0000 0.0000  plane waves:     150
 k-point  6 :   0.2632 0.0000 0.0000  plane waves:     144
 k-point  7 :   0.3158 0.0000 0.0000  plane waves:     144
 k-point  8 :   0.3684 0.0000 0.0000  plane waves:     144
 k-point  9 :   0.4211 0.0000 0.0000  plane waves:     147
 k-point 10 :   0.4737 0.0000 0.0000  plane waves:     138
 k-point 11 :   0.0526 0.0526 0.0000  plane waves:     141
 k-point 12 :   0.1053 0.0526 0.0000  plane waves:     146
 k-point 13 :   0.1579 0.0526 0.0000  plane waves:     149
 k-point 14 :   0.2105 0.0526 0.0000  plane waves:     147
 k-point 15 :   0.2632 0.0526 0.0000  plane waves:     145
 k-point 16 :   0.3158 0.0526 0.0000  plane waves:     145
 k-point 17 :   0.3684 0.0526 0.0000  plane waves:     144
 k-point 18 :   0.4211 0.0526 0.0000  plane waves:     146
 k-point 19 :   0.4737 0.0526 0.0000  plane waves:     145
 k-point 20 :  -0.4737 0.0526 0.0000  plane waves:     140
 k-point 21 :  -0.4211 0.0526 0.0000  plane waves:     145
 k-point 22 :  -0.3684 0.0526 0.0000  plane waves:     145
 k-point 23 :  -0.3158 0.0526 0.0000  plane waves:     144
 k-point 24 :  -0.2632 0.0526 0.0000  plane waves:     145
 k-point 25 :  -0.2105 0.0526 0.0000  plane waves:     147
 k-point 26 :  -0.1579 0.0526 0.0000  plane waves:     147
 k-point 27 :  -0.1053 0.0526 0.0000  plane waves:     148
 k-point 28 :  -0.0526 0.0526 0.0000  plane waves:     147
 k-point 29 :   0.1053 0.1053 0.0000  plane waves:     145
 k-point 30 :   0.1579 0.1053 0.0000  plane waves:     148
 k-point 31 :   0.2105 0.1053 0.0000  plane waves:     143
 k-point 32 :   0.2632 0.1053 0.0000  plane waves:     143
 k-point 33 :   0.3158 0.1053 0.0000  plane waves:     143
 k-point 34 :   0.3684 0.1053 0.0000  plane waves:     145
 k-point 35 :   0.4211 0.1053 0.0000  plane waves:     147
 k-point 36 :   0.4737 0.1053 0.0000  plane waves:     142
 k-point 37 :  -0.4737 0.1053 0.0000  plane waves:     141
 k-point 38 :  -0.4211 0.1053 0.0000  plane waves:     142
 k-point 39 :  -0.3684 0.1053 0.0000  plane waves:     144
 k-point 40 :  -0.3158 0.1053 0.0000  plane waves:     146
 k-point 41 :  -0.2632 0.1053 0.0000  plane waves:     143
 k-point 42 :  -0.2105 0.1053 0.0000  plane waves:     145
 k-point 43 :  -0.1579 0.1053 0.0000  plane waves:     143
 k-point 44 :  -0.1053 0.1053 0.0000  plane waves:     145
 k-point 45 :   0.1579 0.1579 0.0000  plane waves:     141
 k-point 46 :   0.2105 0.1579 0.0000  plane waves:     145
 k-point 47 :   0.2632 0.1579 0.0000  plane waves:     141
 k-point 48 :   0.3158 0.1579 0.0000  plane waves:     140
 k-point 49 :   0.3684 0.1579 0.0000  plane waves:     142
 k-point 50 :   0.4211 0.1579 0.0000  plane waves:     144
 k-point 51 :   0.4737 0.1579 0.0000  plane waves:     142
 k-point 52 :  -0.4737 0.1579 0.0000  plane waves:     140
 k-point 53 :  -0.4211 0.1579 0.0000  plane waves:     142
 k-point 54 :  -0.3684 0.1579 0.0000  plane waves:     138
 k-point 55 :  -0.3158 0.1579 0.0000  plane waves:     143
 k-point 56 :  -0.2632 0.1579 0.0000  plane waves:     141
 k-point 57 :  -0.2105 0.1579 0.0000  plane waves:     142
 k-point 58 :  -0.1579 0.1579 0.0000  plane waves:     143
 k-point 59 :   0.2105 0.2105 0.0000  plane waves:     141
 k-point 60 :   0.2632 0.2105 0.0000  plane waves:     141
[...]
 k-point 85 :  -0.4737 0.3158 0.0000  plane waves:     137
 k-point 86 :  -0.4211 0.3158 0.0000  plane waves:     136
 k-point 87 :  -0.3684 0.3158 0.0000  plane waves:     140
 k-point 88 :  -0.3158 0.3158 0.0000  plane waves:     140
 k-point 89 :   0.3684 0.3684 0.0000  plane waves:     137
 k-point 90 :   0.4211 0.3684 0.0000  plane waves:     135
 k-point 91 :   0.4737 0.3684 0.0000  plane waves:     135
 k-point 92 :  -0.4737 0.3684 0.0000  plane waves:     136
 k-point 93 :  -0.4211 0.3684 0.0000  plane waves:     136
 k-point 94 :  -0.3684 0.3684 0.0000  plane waves:     138
 k-point 95 :   0.4211 0.4211 0.0000  plane waves:     141
 k-point 96 :   0.4737 0.4211 0.0000  plane waves:     138
 k-point 97 :  -0.4737 0.4211 0.0000  plane waves:     140
 k-point 98 :  -0.4211 0.4211 0.0000  plane waves:     134
 k-point 99 :   0.4737 0.4737 0.0000  plane waves:     142
 k-point ** :  -0.4737 0.4737 0.0000  plane waves:     142
 k-point ** :   0.1579 0.1053 0.0526  plane waves:     145
 k-point ** :   0.2105 0.1053 0.0526  plane waves:     146
 k-point ** :   0.2632 0.1053 0.0526  plane waves:     145
 k-point ** :   0.3158 0.1053 0.0526  plane waves:     145
 k-point ** :   0.3684 0.1053 0.0526  plane waves:     144
 k-point ** :   0.4211 0.1053 0.0526  plane waves:     144
 k-point ** :   0.4737 0.1053 0.0526  plane waves:     143
 k-point ** :  -0.4737 0.1053 0.0526  plane waves:     142
 k-point ** :   0.2105 0.1579 0.0526  plane waves:     145
 k-point ** :   0.2632 0.1579 0.0526  plane waves:     143
 k-point ** :   0.3158 0.1579 0.0526  plane waves:     143
 k-point ** :   0.3684 0.1579 0.0526  plane waves:     143
 k-point ** :   0.4211 0.1579 0.0526  plane waves:     144
 k-point ** :   0.4737 0.1579 0.0526  plane waves:     144
 k-point ** :  -0.4737 0.1579 0.0526  plane waves:     139
 k-point ** :  -0.4211 0.1579 0.0526  plane waves:     141
 k-point ** :  -0.3684 0.1579 0.0526  plane waves:     138
 k-point ** :  -0.3158 0.1579 0.0526  plane waves:     142
 k-point ** :  -0.2632 0.1579 0.0526  plane waves:     145
 k-point ** :  -0.2105 0.1579 0.0526  plane waves:     143
 k-point ** :  -0.1579 0.1579 0.0526  plane waves:     142
 k-point ** :  -0.1053 0.1579 0.0526  plane waves:     145
 k-point ** :   0.2632 0.2105 0.0526  plane waves:     141
 k-point ** :   0.3158 0.2105 0.0526  plane waves:     141
 k-point ** :   0.3684 0.2105 0.0526  plane waves:     141
 k-point ** :   0.4211 0.2105 0.0526  plane waves:     141
 k-point ** :   0.4737 0.2105 0.0526  plane waves:     142
 k-point ** :  -0.4737 0.2105 0.0526  plane waves:     141
 k-point ** :  -0.4211 0.2105 0.0526  plane waves:     139
 k-point ** :  -0.3684 0.2105 0.0526  plane waves:     141
 k-point ** :  -0.3158 0.2105 0.0526  plane waves:     140
 k-point ** :  -0.2632 0.2105 0.0526  plane waves:     142
 k-point ** :  -0.2105 0.2105 0.0526  plane waves:     142
 k-point ** :  -0.1579 0.2105 0.0526  plane waves:     141
 k-point ** :   0.3158 0.2632 0.0526  plane waves:     141
 k-point ** :   0.3684 0.2632 0.0526  plane waves:     140
 k-point ** :   0.4211 0.2632 0.0526  plane waves:     140
 k-point ** :   0.4737 0.2632 0.0526  plane waves:     141
 k-point ** :  -0.4737 0.2632 0.0526  plane waves:     140
 k-point ** :  -0.4211 0.2632 0.0526  plane waves:     142
 k-point ** :  -0.3684 0.2632 0.0526  plane waves:     142
 k-point ** :  -0.3158 0.2632 0.0526  plane waves:     137
 k-point ** :  -0.2632 0.2632 0.0526  plane waves:     140
 k-point ** :  -0.2105 0.2632 0.0526  plane waves:     141
 k-point ** :   0.3684 0.3158 0.0526  plane waves:     139
 k-point ** :   0.4211 0.3158 0.0526  plane waves:     140
 k-point ** :   0.4737 0.3158 0.0526  plane waves:     139
 k-point ** :  -0.4737 0.3158 0.0526  plane waves:     138
 k-point ** :  -0.4211 0.3158 0.0526  plane waves:     137
 k-point ** :  -0.3684 0.3158 0.0526  plane waves:     137
 k-point ** :  -0.3158 0.3158 0.0526  plane waves:     139
 k-point ** :  -0.2632 0.3158 0.0526  plane waves:     138
 k-point ** :   0.4211 0.3684 0.0526  plane waves:     135
 k-point ** :   0.4737 0.3684 0.0526  plane waves:     135
 k-point ** :  -0.4737 0.3684 0.0526  plane waves:     136
 k-point ** :  -0.4211 0.3684 0.0526  plane waves:     137
 k-point ** :  -0.3684 0.3684 0.0526  plane waves:     137
 k-point ** :  -0.3158 0.3684 0.0526  plane waves:     140
 k-point ** :   0.4737 0.4211 0.0526  plane waves:     138
[...]
 k-point ** :  -0.4211 0.3684 0.1579  plane waves:     140
 k-point ** :  -0.3684 0.3684 0.1579  plane waves:     140
 k-point ** :  -0.3158 0.3684 0.1579  plane waves:     141
 k-point ** :  -0.2632 0.3684 0.1579  plane waves:     139
 k-point ** :  -0.2105 0.3684 0.1579  plane waves:     140
 k-point ** :  -0.4211 0.4211 0.1579  plane waves:     137
 k-point ** :  -0.3684 0.4211 0.1579  plane waves:     140
 k-point ** :  -0.3158 0.4211 0.1579  plane waves:     141
 k-point ** :  -0.2632 0.4211 0.1579  plane waves:     146
 k-point ** :  -0.3684 0.4737 0.1579  plane waves:     138
 k-point ** :  -0.3158 0.4737 0.1579  plane waves:     138
 k-point ** :  -0.3684 0.4211 0.2105  plane waves:     140
 k-point ** :  -0.3158 0.4211 0.2105  plane waves:     141
 k-point ** :  -0.3158 0.4737 0.2105  plane waves:     144
 k-point ** :  -0.2632 0.4737 0.2105  plane waves:     144

 maximum and minimum number of plane-waves per node :       150      134

 maximum number of plane-waves:       150
 maximum index in each direction:
   IXMAX=    4   IYMAX=    3   IZMAX=    3
   IXMIN=   -4   IYMIN=   -4   IZMIN=   -3

 WARNING: aliasing errors must be expected set NGX to  18 to avoid them
 WARNING: aliasing errors must be expected set NGY to  16 to avoid them
 NGZ is ok and might be reduce to  14
 aliasing errors are usually negligible using standard VASP settings
 and one can safely disregard these warnings

 serial   3D FFT for wavefunctions
 parallel 3D FFT for charge:
    minimum data exchange during FFTs selected (reduces bandwidth)

 initial charge density was supplied:
 number of electron       3.0000000 magnetization
 keeping initial charge density in first step

 Maximum index for augmentation-charges         6603 (set IRDMAX)

 First call to EWALD:  gamma=   0.708
 Maximum number of real-space cells 3x 3x 3
 Maximum number of reciprocal cells 3x 3x 3

 FEWALD executed in parallel

----------------------------------------- Iteration    1(   1)  ---------------------------------------

 BZINTS: Fermi energy:  9.090945;  3.000000 electrons
         Band energy:  12.698107;  BLOECHL correction: -0.066548

 eigenvalue-minimisations  :  2750
 total energy-change (2. order) :-0.2936585E+01  (-0.5956336E+02)
 number of electron       3.0000000 magnetization
 augmentation part        3.0000000 magnetization

 Free energy of the ion-electron system (eV)
  alpha Z        PSCENC =        -0.21391158
  Ewald energy   TEWEN  =       -74.74079779
  -1/2 Hartree   DENC   =        -0.11606305
  -exchange  EXHF       =         0.00000000
  -V(xc)+E(xc)   XCENC  =       -26.03027837
  PAW double counting   =        35.98065828       -4.05046090
  entropy T*S    EENTRO =         0.00000000
  eigenvalues    EBANDS =        12.69810668
  atomic energy  EATOM  =        53.53616173
  free energy    TOTEN  =        -2.93658500 eV

  energy without entropy =       -2.93658500  energy(sigma->0) =       -2.93658500

[...]

----------------------------------------- Iteration    1(   6)  ---------------------------------------

[...]

 eigenvalue-minimisations  :  1825
 total energy-change (2. order) :-0.2127507E-09  (-0.1518721E-09)
 number of electron       3.0000000 magnetization
 augmentation part        3.0000000 magnetization

 Free energy of the ion-electron system (eV)
  alpha Z        PSCENC =        -0.21391158
  Ewald energy   TEWEN  =       -74.74079779
  -1/2 Hartree   DENC   =        -0.11606305
  -exchange  EXHF       =         0.00000000
  -V(xc)+E(xc)   XCENC  =       -26.03027837
  PAW double counting   =        35.98065828       -4.05046090
  entropy T*S    EENTRO =         0.00000000
  eigenvalues    EBANDS =        11.91197840
  atomic energy  EATOM  =        53.53616173
  free energy    TOTEN  =        -3.72271328 eV

  energy without entropy =       -3.72271328  energy(sigma->0) =       -3.72271328

 average (electrostatic) potential at core
  the test charge radii are     1.0406
  (the norm of the test charge is              1.0000)
       1 -72.0146

 E-fermi :   8.5693     XC(G=0): -10.3764     alpha+bet :-15.6325

 k-point   1 :       0.0000    0.0000    0.0000
  band No.  band energies     occupation
      1      -2.9508      2.00000
      2      21.5023      0.00000
      3      21.5023      0.00000
      4      21.5023      0.00000
      5      23.3079      0.00000

[...]

 k-point 220 :      -0.2632    0.4737    0.2105
  band No.  band energies     occupation
      1       7.4204      2.00000
      2       7.4313      2.00000
      3       8.8059      0.00000
      4      10.2575      0.00000
      5      23.8475      0.00000

 soft charge-density along one line, spin component           1
         0         1         2         3         4         5         6         7         8         9
 total charge-density along one line

------------------------ aborting loop because EDIFF is reached ----------------------------------------

 total charge

# of ion     s       p       d       tot
  1        0.428   0.369   0.000   0.798

  FORCE on cell =-STRESS in cart. coord.  units (eV):
  Direction    XX          YY          ZZ          XY          YZ          ZX
  Alpha Z    -0.21391    -0.21391    -0.21391
  Ewald     -24.91360   -24.91360   -24.91360     0.00000     0.00000     0.00000
  Hartree     0.03825     0.03825     0.03825     0.00000     0.00000     0.00000
  E(xc)      -8.70799    -8.70799    -8.70799     0.00001     0.00001     0.00001
  Local       0.54873     0.54873     0.54873     0.00000     0.00000     0.00000
  n-local    19.14896    18.77815    19.31727     0.43648    -0.63673     0.59121
  augment    -0.94012    -0.94012    -0.94012     0.00000     0.00000     0.00000
  Kinetic    12.83762    11.34516    22.27098    -9.93533     8.63713    -6.40942
  Fock        0.00000     0.00000     0.00000     0.00000     0.00000     0.00000
  Total       0.37741     0.37741     0.37741     0.00000     0.00000     0.00000
  in kB      38.51002    38.51002    38.51002     0.00000     0.00000     0.00000

 VOLUME and BASIS-vectors are now :
  energy-cutoff  :      250.00
  volume of cell :       15.70
      direct lattice vectors                 reciprocal lattice vectors
     0.000000000  1.987500000  1.987500000    -0.251572327  0.251572327  0.251572327
     1.987500000  0.000000000  1.987500000     0.251572327 -0.251572327  0.251572327
     1.987500000  1.987500000  0.000000000     0.251572327  0.251572327 -0.251572327

  length of vectors
     2.810749455  2.810749455  2.810749455     0.435736052  0.435736052  0.435736052

 FORCES acting on ions
    electron-ion (+dipol)            ewald-force                    non-local-force                 convergence-correction
   0.819E-15 -.141E-14 -.628E-15   0.125E-15 0.427E-16 -.332E-15   0.165E-23 0.000E+00 -.165E-23   -.676E-17 0.330E-17 -.562E-17
   0.819E-15 -.141E-14 -.628E-15   0.125E-15 0.427E-16 -.332E-15   0.165E-23 0.000E+00 -.165E-23   -.676E-17 0.330E-17 -.562E-17

 POSITION                                       TOTAL-FORCE (eV/Angst)
      0.00000      0.00000      0.00000         0.000000      0.000000      0.000000
    total drift:                                0.000000      0.000000      0.000000

  FREE ENERGIE OF THE ION-ELECTRON SYSTEM (eV)
  free  energy   TOTEN  =        -3.72271328 eV

  energy  without entropy=       -3.72271328  energy(sigma->0) =       -3.72271328

 stress matrix after NEB project (eV)
      0.37741      0.00000      0.00000
      0.00000      0.37741      0.00000
      0.00000      0.00000      0.37741
  FORCES: max atom, RMS     0.000000    0.000000
  FORCE total and by dimension    0.000000    0.000000
  Stress total and by dimension    0.653695    0.377411
 writing wavefunctions

 total charge

# of ion     s       p       d       tot
  1        0.428   0.369   0.000   0.798

 BZINTS: Fermi energy:  8.569325;  3.000000 electrons
         Band energy:  11.911978;  BLOECHL correction: -0.040984