 vasp.5.3.3 18Dez12 (build Feb 04 2014 23:58:42) complex

 executed on             LinuxIFC date 2019.04.27  10:24:30

 INCAR:
 POTCAR:   PAW_PBE Al 04Jan2001
 POTCAR:   PAW_PBE Al 04Jan2001
   VRHFIN =Al: s2p1

   TITEL  = PAW_PBE Al 04Jan2001
   POMASS =   26.982; ZVAL   =    3.000    mass and valenz
   ENMAX  =  240.300; ENMIN  =  180.225 eV
   QCUT   =   -4.203; QGAM   =    8.405    optimization parameters

   Description
     l     E      TYP  RCUT    TYP  RCUT
     0   .000     23  1.900
     0   .000     23  1.900
     1   .000     23  1.900
     1  1.000     23  1.900
     2   .000      7  1.900

 PAW_PBE Al 04Jan2001                   :

 POSCAR: Al
  positions in direct lattice
 exchange correlation table for  LEXCH =        8
   RHO(1)=    0.500       N(1)  =     2000
   RHO(2)=  100.500       N(2)  =     4000

 VTST: version 3.0d, (01/09/14)

 CHAIN: initializing optimizer

 OPT: Using VASP Conjugate-Gradient optimizer
 CHAIN: Read ICHAIN            0

 POSCAR: Al
  positions in direct lattice

 ion  position               nearest neighbor table
   1  0.000  0.000  0.000-

  LATTYP: Found a face centered cubic cell.
 ALAT       =     3.9750000000

  Lattice vectors:

 A1 = (   0.0000000000,   1.9875000000,   1.9875000000)
 A2 = (   1.9875000000,   0.0000000000,   1.9875000000)
 A3 = (   1.9875000000,   1.9875000000,   0.0000000000)

Analysis of symmetry for initial positions (statically):
 Subroutine PRICEL returns:
 Original cell was already a primitive cell.

 Routine SETGRP: Setting up the symmetry group for a
 face centered cubic supercell.

 Subroutine GETGRP returns: Found 48 space group operations
 (whereof 48 operations were pure point group operations)
 out of a pool of 48 trial point group operations.

The static configuration has the point symmetry O_h .

Analysis of symmetry for dynamics (positions and initial velocities):
 Subroutine PRICEL returns:
 Original cell was already a primitive cell.

 Routine SETGRP: Setting up the symmetry group for a
 face centered cubic supercell.

 Subroutine GETGRP returns: Found 48 space group operations
 (whereof 48 operations were pure point group operations)
 out of a pool of 48 trial point group operations.

The dynamic configuration has the point symmetry O_h .

 irot  :   1
 isymop:   1   0   0
           0   1   0
           0   0   1

 gtrans:     0.0000000     0.0000000     0.0000000

 ptrans:     0.0000000     0.0000000     0.0000000
 rotmap:
 (   1->   1)

[...]

 irot  :  48
 isymop:   0   0   1
           0   1   0
           1   0   0

 gtrans:     0.0000000     0.0000000     0.0000000

 ptrans:     0.0000000     0.0000000     0.0000000
 rotmap:
 (   1->   1)

 KPOINTS: k-points along high symmetry lines
  interpolating k-points between supplied coordinates
  k-points in reciprocal lattice
Space group operators:
 irot       det(A)        alpha          n_x          n_y          n_z        tau_x        tau_y        tau_z
    1     1.000000     0.000001     1.000000     0.000000     0.000000     0.000000     0.000000     0.000000
    2    -1.000000     0.000001     1.000000     0.000000     0.000000     0.000000     0.000000     0.000000
    3     1.000000   120.000000    -0.577350    -0.577350    -0.577350     0.000000     0.000000     0.000000
    4    -1.000000   120.000000    -0.577350    -0.577350    -0.577350     0.000000     0.000000     0.000000
    5     1.000000   120.000000     0.577350     0.577350     0.577350     0.000000     0.000000     0.000000
    6    -1.000000   120.000000     0.577350     0.577350     0.577350     0.000000     0.000000     0.000000
    7     1.000000    90.000000     0.000000     0.000000    -1.000000     0.000000     0.000000     0.000000
    8    -1.000000    90.000000     0.000000     0.000000    -1.000000     0.000000     0.000000     0.000000
    9     1.000000   180.000000     0.000000     0.707107     0.707107     0.000000     0.000000     0.000000
   10    -1.000000   180.000000     0.000000     0.707107     0.707107     0.000000     0.000000     0.000000
   11     1.000000    90.000000     0.000000     1.000000     0.000000     0.000000     0.000000     0.000000
   12    -1.000000    90.000000     0.000000     1.000000     0.000000     0.000000     0.000000     0.000000
   13     1.000000   180.000000     0.000000     0.000000     1.000000     0.000000     0.000000     0.000000
   14    -1.000000   180.000000     0.000000     0.000000     1.000000     0.000000     0.000000     0.000000
   15     1.000000   120.000000    -0.577350     0.577350     0.577350     0.000000     0.000000     0.000000
   16    -1.000000   120.000000    -0.577350     0.577350     0.577350     0.000000     0.000000     0.000000
   17     1.000000   120.000000    -0.577350     0.577350    -0.577350     0.000000     0.000000     0.000000
   18    -1.000000   120.000000    -0.577350     0.577350    -0.577350     0.000000     0.000000     0.000000
   19     1.000000    90.000000     0.000000     0.000000     1.000000     0.000000     0.000000     0.000000
   20    -1.000000    90.000000     0.000000     0.000000     1.000000     0.000000     0.000000     0.000000
   21     1.000000    90.000000    -1.000000     0.000000     0.000000     0.000000     0.000000     0.000000
   22    -1.000000    90.000000    -1.000000     0.000000     0.000000     0.000000     0.000000     0.000000
   23     1.000000   180.000000     0.707107     0.000000     0.707107     0.000000     0.000000     0.000000
   24    -1.000000   180.000000     0.707107     0.000000     0.707107     0.000000     0.000000     0.000000
   25     1.000000   120.000000     0.577350    -0.577350     0.577350     0.000000     0.000000     0.000000
   26    -1.000000   120.000000     0.577350    -0.577350     0.577350     0.000000     0.000000     0.000000
   27     1.000000   120.000000    -0.577350    -0.577350     0.577350     0.000000     0.000000     0.000000
   28    -1.000000   120.000000    -0.577350    -0.577350     0.577350     0.000000     0.000000     0.000000
   29     1.000000   180.000000     1.000000     0.000000     0.000000     0.000000     0.000000     0.000000
   30    -1.000000   180.000000     1.000000     0.000000     0.000000     0.000000     0.000000     0.000000
   31     1.000000    90.000000     0.000000    -1.000000     0.000000     0.000000     0.000000     0.000000
   32    -1.000000    90.000000     0.000000    -1.000000     0.000000     0.000000     0.000000     0.000000
   33     1.000000   180.000000     0.707107     0.707107     0.000000     0.000000     0.000000     0.000000
   34    -1.000000   180.000000     0.707107     0.707107     0.000000     0.000000     0.000000     0.000000
   35     1.000000    90.000000     1.000000     0.000000     0.000000     0.000000     0.000000     0.000000
   36    -1.000000    90.000000     1.000000     0.000000     0.000000     0.000000     0.000000     0.000000
   37     1.000000   120.000000     0.577350    -0.577350    -0.577350     0.000000     0.000000     0.000000
   38    -1.000000   120.000000     0.577350    -0.577350    -0.577350     0.000000     0.000000     0.000000
   39     1.000000   180.000000     0.000000     1.000000     0.000000     0.000000     0.000000     0.000000
   40    -1.000000   180.000000     0.000000     1.000000     0.000000     0.000000     0.000000     0.000000
   41     1.000000   120.000000     0.577350     0.577350    -0.577350     0.000000     0.000000     0.000000
   42    -1.000000   120.000000     0.577350     0.577350    -0.577350     0.000000     0.000000     0.000000
   43     1.000000   180.000000     0.000000    -0.707107     0.707107     0.000000     0.000000     0.000000
   44    -1.000000   180.000000     0.000000    -0.707107     0.707107     0.000000     0.000000     0.000000
   45     1.000000   180.000000     0.707107    -0.707107     0.000000     0.000000     0.000000     0.000000
   46    -1.000000   180.000000     0.707107    -0.707107     0.000000     0.000000     0.000000     0.000000
   47     1.000000   180.000000     0.707107     0.000000    -0.707107     0.000000     0.000000     0.000000
   48    -1.000000   180.000000     0.707107     0.000000    -0.707107     0.000000     0.000000     0.000000

 I would recommend the setting:
   dimension x,y,z NGX =    14 NGY =   14 NGZ =   14
 SYSTEM =  Al
 POSCAR =  Al

 Startparameter for this run:
   NWRITE =      2    write-flag & timer
   PREC   = accura    normal or accurate (medium, high low for compatibility)
   ISTART =      0    job   : 0-new  1-cont  2-samecut
   ICHARG =     11    charge: 1-file 2-atom 10-const
   ISPIN  =      1    spin polarized calculation?
   LNONCOLLINEAR =      F non collinear calculations
   LSORBIT =      F    spin-orbit coupling
   INIWAV =      1    electr: 0-lowe 1-rand  2-diag
   LASPH  =      F    aspherical Exc in radial PAW
   METAGGA=      F    non-selfconsistent MetaGGA calc.

 Electronic Relaxation 1
   ENCUT  =  250.0 eV  18.37 Ry    4.29 a.u.   3.62  3.62  3.62*2*pi/ulx,y,z
   ENINI  =  250.0     initial cutoff
   ENAUG  =  291.1 eV  augmentation charge cutoff
   NELM   =     60;   NELMIN=  2; NELMDL=  0     # of ELM steps
   EDIFF  = 0.1E-04   stopping-criterion for ELM
   LREAL  =      F    real-space projection
   NLSPLINE    = F    spline interpolate recip. space projectors
   LCOMPAT=      F    compatible to vasp.4.4
   GGA_COMPAT  = T    GGA compatible to vasp.4.4-vasp.4.6
   LMAXPAW     = -100 max onsite density
   LMAXMIX     =    2 max onsite mixed and CHGCAR
   VOSKOWN=      0    Vosko Wilk Nusair interpolation
   ROPT   =    0.00000
 Ionic relaxation
   EDIFFG = 0.1E-03   stopping-criterion for IOM
   NSW    =      0    number of steps for IOM
   NBLOCK =      1;   KBLOCK =      1    inner block; outer block
   IBRION =     -1    ionic relax: 0-MD 1-quasi-New 2-CG
   NFREE  =      1    steps in history (QN), initial steepest desc. (CG)
   ISIF   =      2    stress and relaxation
   IWAVPR =     10    prediction:  0-non 1-charg 2-wave 3-comb
   ISYM   =      2    0-nonsym 1-usesym 2-fastsym
   LCORR  =      T    Harris-Foulkes like correction to forces

   POTIM  = 0.5000    time-step for ionic-motion
   TEIN   =    0.0    initial temperature
   TEBEG  =    0.0;   TEEND  =   0.0 temperature during run
   SMASS  =  -3.00    Nose mass-parameter (am)
   estimated Nose-frequenzy (Omega)   =  0.10E-29 period in steps =****** mass=  -0.181E-27a.u.
   SCALEE = 1.0000    scale energy and forces
   NPACO  =    256;   APACO  = 16.0  distance and # of slots for P.C.
   PSTRESS=    0.0 pullay stress

  Mass of Ions in am
   POMASS =  26.98
  Ionic Valenz
   ZVAL   =   3.00
  Atomic Wigner-Seitz radii
  virtual crystal weights
   VCA    =   1.00
   NELECT =       3.0000    total number of electrons
   NUPDOWN=      -1.0000    fix difference up-down

 DOS related values:
   EMIN   =  10.00;   EMAX   =-10.00  energy-range for DOS
   EFERMI =   0.00
   ISMEAR =     1;   SIGMA  =   0.20  broadening in eV -4-tet -1-fermi 0-gaus

 Electronic relaxation 2 (details)
   IALGO  =     38    algorithm
   LDIAG  =      T    sub-space diagonalisation (order eigenvalues)
   LSUBROT=      T    optimize rotation matrix (better conditioning)
[...]
   0.50000000  0.81578947  0.18421053       0.010
   0.50000000  0.84210526  0.15789474       0.010
   0.50000000  0.86842105  0.13157895       0.010
   0.50000000  0.89473684  0.10526316       0.010
   0.50000000  0.92105263  0.07894737       0.010
   0.50000000  0.94736842  0.05263158       0.010
   0.50000000  0.97368421  0.02631579       0.010
   0.50000000  1.00000000  0.00000000       0.010
[...]
   0.55263158  0.55263158  0.00000000       0.010
   0.51315789  0.51315789  0.00000000       0.010
   0.47368421  0.47368421  0.00000000       0.010
   0.43421053  0.43421053  0.00000000       0.010
   0.39473684  0.39473684  0.00000000       0.010
   0.35526316  0.35526316  0.00000000       0.010
   0.31578947  0.31578947  0.00000000       0.010
   0.27631579  0.27631579  0.00000000       0.010
   0.23684211  0.23684211  0.00000000       0.010
   0.19736842  0.19736842  0.00000000       0.010
   0.15789474  0.15789474  0.00000000       0.010
   0.11842105  0.11842105  0.00000000       0.010
   0.07894737  0.07894737  0.00000000       0.010
   0.03947368  0.03947368  0.00000000       0.010
   0.00000000  0.00000000  0.00000000       0.010

 k-points in reciprocal lattice and weights: k-points along high symmetry lines
   0.50000000  0.00000000  0.50000000       0.010
   0.47368421  0.00000000  0.47368421       0.010
   0.44736842  0.00000000  0.44736842       0.010
   0.42105263  0.00000000  0.42105263       0.010
   0.39473684  0.00000000  0.39473684       0.010
   0.36842105  0.00000000  0.36842105       0.010
   0.34210526  0.00000000  0.34210526       0.010
   0.31578947  0.00000000  0.31578947       0.010
   0.28947368  0.00000000  0.28947368       0.010
   0.26315789  0.00000000  0.26315789       0.010
   0.23684211  0.00000000  0.23684211       0.010
   0.21052632  0.00000000  0.21052632       0.010
   0.18421053  0.00000000  0.18421053       0.010
   0.15789474  0.00000000  0.15789474       0.010
   0.13157895  0.00000000  0.13157895       0.010
   0.10526316  0.00000000  0.10526316       0.010
   0.07894737  0.00000000  0.07894737       0.010
   0.05263158  0.00000000  0.05263158       0.010
   0.02631579  0.00000000  0.02631579       0.010
   0.00000000  0.00000000  0.00000000       0.010
   0.00000000  0.00000000  0.00000000       0.010
   0.02631579  0.02631579  0.02631579       0.010
   0.05263158  0.05263158  0.05263158       0.010
   0.07894737  0.07894737  0.07894737       0.010
   0.10526316  0.10526316  0.10526316       0.010
   0.13157895  0.13157895  0.13157895       0.010
   0.15789474  0.15789474  0.15789474       0.010
   0.18421053  0.18421053  0.18421053       0.010
   0.21052632  0.21052632  0.21052632       0.010
   0.23684211  0.23684211  0.23684211       0.010
   0.26315789  0.26315789  0.26315789       0.010
   0.28947368  0.28947368  0.28947368       0.010
   0.31578947  0.31578947  0.31578947       0.010
   0.34210526  0.34210526  0.34210526       0.010
   0.36842105  0.36842105  0.36842105       0.010
   0.39473684  0.39473684  0.39473684       0.010
   0.42105263  0.42105263  0.42105263       0.010
   0.44736842  0.44736842  0.44736842       0.010
   0.47368421  0.47368421  0.47368421       0.010
   0.50000000  0.50000000  0.50000000       0.010
   0.50000000  0.50000000  0.50000000       0.010
   0.50000000  0.48684211  0.51315789       0.010
   0.50000000  0.47368421  0.52631579       0.010
   0.50000000  0.46052632  0.53947368       0.010
   0.50000000  0.44736842  0.55263158       0.010
   0.50000000  0.43421053  0.56578947       0.010
   0.50000000  0.42105263  0.57894737       0.010
   0.50000000  0.40789474  0.59210526       0.010
   0.50000000  0.39473684  0.60526316       0.010
   0.50000000  0.38157895  0.61842105       0.010
   0.50000000  0.36842105  0.63157895       0.010
   0.50000000  0.35526316  0.64473684       0.010
   0.50000000  0.34210526  0.65789474       0.010
   0.50000000  0.32894737  0.67105263       0.010
   0.50000000  0.31578947  0.68421053       0.010
   0.50000000  0.30263158  0.69736842       0.010
   0.50000000  0.28947368  0.71052632       0.010
   0.50000000  0.27631579  0.72368421       0.010
   0.50000000  0.26315789  0.73684211       0.010
   0.50000000  0.25000000  0.75000000       0.010
[...]
   0.27631579  0.27631579  0.55263158       0.010
   0.25657895  0.25657895  0.51315789       0.010
   0.23684211  0.23684211  0.47368421       0.010
   0.21710526  0.21710526  0.43421053       0.010
   0.19736842  0.19736842  0.39473684       0.010
   0.17763158  0.17763158  0.35526316       0.010
   0.15789474  0.15789474  0.31578947       0.010
   0.13815789  0.13815789  0.27631579       0.010
   0.11842105  0.11842105  0.23684211       0.010
   0.09868421  0.09868421  0.19736842       0.010
   0.07894737  0.07894737  0.15789474       0.010
   0.05921053  0.05921053  0.11842105       0.010
   0.03947368  0.03947368  0.07894737       0.010
   0.01973684  0.01973684  0.03947368       0.010
   0.00000000  0.00000000  0.00000000       0.010

 position of ions in fractional coordinates (direct lattice)
   0.00000000  0.00000000  0.00000000

 position of ions in cartesian coordinates  (Angst):
   0.00000000  0.00000000  0.00000000

 k-point  1 :   0.5000 0.0000 0.5000  plane waves:     150
 k-point  2 :   0.4737 0.0000 0.4737  plane waves:     142
 k-point  3 :   0.4474 0.0000 0.4474  plane waves:     142
 k-point  4 :   0.4211 0.0000 0.4211  plane waves:     141
 k-point  5 :   0.3947 0.0000 0.3947  plane waves:     137
 k-point  6 :   0.3684 0.0000 0.3684  plane waves:     137
 k-point  7 :   0.3421 0.0000 0.3421  plane waves:     141
 k-point  8 :   0.3158 0.0000 0.3158  plane waves:     141
 k-point  9 :   0.2895 0.0000 0.2895  plane waves:     141
 k-point 10 :   0.2632 0.0000 0.2632  plane waves:     141
 k-point 11 :   0.2368 0.0000 0.2368  plane waves:     141
 k-point 12 :   0.2105 0.0000 0.2105  plane waves:     141
 k-point 13 :   0.1842 0.0000 0.1842  plane waves:     141
 k-point 14 :   0.1579 0.0000 0.1579  plane waves:     141
 k-point 15 :   0.1316 0.0000 0.1316  plane waves:     145
 k-point 16 :   0.1053 0.0000 0.1053  plane waves:     145
 k-point 17 :   0.0789 0.0000 0.0789  plane waves:     145
 k-point 18 :   0.0526 0.0000 0.0526  plane waves:     141
 k-point 19 :   0.0263 0.0000 0.0263  plane waves:     137
 k-point 20 :   0.0000 0.0000 0.0000  plane waves:     137
 k-point 21 :   0.0000 0.0000 0.0000  plane waves:     137
 k-point 22 :   0.0263 0.0263 0.0263  plane waves:     137
 k-point 23 :   0.0526 0.0526 0.0526  plane waves:     138
 k-point 24 :   0.0789 0.0789 0.0789  plane waves:     147
 k-point 25 :   0.1053 0.1053 0.1053  plane waves:     147
 k-point 26 :   0.1316 0.1316 0.1316  plane waves:     147
 k-point 27 :   0.1579 0.1579 0.1579  plane waves:     150
 k-point 28 :   0.1842 0.1842 0.1842  plane waves:     150
 k-point 29 :   0.2105 0.2105 0.2105  plane waves:     150
 k-point 30 :   0.2368 0.2368 0.2368  plane waves:     150
 k-point 31 :   0.2632 0.2632 0.2632  plane waves:     144
 k-point 32 :   0.2895 0.2895 0.2895  plane waves:     144
 k-point 33 :   0.3158 0.3158 0.3158  plane waves:     144
 k-point 34 :   0.3421 0.3421 0.3421  plane waves:     144
 k-point 35 :   0.3684 0.3684 0.3684  plane waves:     144
 k-point 36 :   0.3947 0.3947 0.3947  plane waves:     147
 k-point 37 :   0.4211 0.4211 0.4211  plane waves:     147
 k-point 38 :   0.4474 0.4474 0.4474  plane waves:     147
 k-point 39 :   0.4737 0.4737 0.4737  plane waves:     138
 k-point 40 :   0.5000 0.5000 0.5000  plane waves:     138
 k-point 41 :   0.5000 0.5000 0.5000  plane waves:     138
 k-point 42 :   0.5000 0.4868 0.5132  plane waves:     138
 k-point 43 :   0.5000 0.4737 0.5263  plane waves:     138
 k-point 44 :   0.5000 0.4605 0.5395  plane waves:     140
 k-point 45 :   0.5000 0.4474 0.5526  plane waves:     140
 k-point 46 :   0.5000 0.4342 0.5658  plane waves:     142
 k-point 47 :   0.5000 0.4211 0.5789  plane waves:     142
 k-point 48 :   0.5000 0.4079 0.5921  plane waves:     140
 k-point 49 :   0.5000 0.3947 0.6053  plane waves:     140
 k-point 50 :   0.5000 0.3816 0.6184  plane waves:     142
 k-point 51 :   0.5000 0.3684 0.6316  plane waves:     142
 k-point 52 :   0.5000 0.3553 0.6447  plane waves:     140
 k-point 53 :   0.5000 0.3421 0.6579  plane waves:     140
 k-point 54 :   0.5000 0.3289 0.6711  plane waves:     142
 k-point 55 :   0.5000 0.3158 0.6842  plane waves:     142
 k-point 56 :   0.5000 0.3026 0.6974  plane waves:     142
 k-point 57 :   0.5000 0.2895 0.7105  plane waves:     144
 k-point 58 :   0.5000 0.2763 0.7237  plane waves:     144
 k-point 59 :   0.5000 0.2632 0.7368  plane waves:     144
 k-point 60 :   0.5000 0.2500 0.7500  plane waves:     144
[...]
 k-point 85 :   0.2961 0.2961 0.5921  plane waves:     140
 k-point 86 :   0.2763 0.2763 0.5526  plane waves:     138
 k-point 87 :   0.2566 0.2566 0.5132  plane waves:     138
 k-point 88 :   0.2368 0.2368 0.4737  plane waves:     140
 k-point 89 :   0.2171 0.2171 0.4342  plane waves:     144
 k-point 90 :   0.1974 0.1974 0.3947  plane waves:     144
 k-point 91 :   0.1776 0.1776 0.3553  plane waves:     143
 k-point 92 :   0.1579 0.1579 0.3158  plane waves:     143
 k-point 93 :   0.1382 0.1382 0.2763  plane waves:     143
 k-point 94 :   0.1184 0.1184 0.2368  plane waves:     145
 k-point 95 :   0.0987 0.0987 0.1974  plane waves:     143
 k-point 96 :   0.0789 0.0789 0.1579  plane waves:     147
 k-point 97 :   0.0592 0.0592 0.1184  plane waves:     147
 k-point 98 :   0.0395 0.0395 0.0789  plane waves:     143
 k-point 99 :   0.0197 0.0197 0.0395  plane waves:     137
 k-point ** :   0.0000 0.0000 0.0000  plane waves:     137

 maximum and minimum number of plane-waves per node :       150      136

 maximum number of plane-waves:       150
 maximum index in each direction:
   IXMAX=    3   IYMAX=    3   IZMAX=    3
   IXMIN=   -4   IYMIN=   -4   IZMIN=   -4

 WARNING: aliasing errors must be expected set NGX to  16 to avoid them
 WARNING: aliasing errors must be expected set NGY to  16 to avoid them
 WARNING: aliasing errors must be expected set NGZ to  16 to avoid them
 aliasing errors are usually negligible using standard VASP settings
 and one can safely disregard these warnings

 serial   3D FFT for wavefunctions
 parallel 3D FFT for charge:
    minimum data exchange during FFTs selected (reduces bandwidth)

 initial charge density was supplied:
 number of electron       3.0000000 magnetization
 keeping initial charge density in first step

 Maximum index for augmentation-charges         6603 (set IRDMAX)

 First call to EWALD:  gamma=   0.708
 Maximum number of real-space cells 3x 3x 3
 Maximum number of reciprocal cells 3x 3x 3

 FEWALD executed in parallel

----------------------------------------- Iteration    1(   1)  ---------------------------------------

 eigenvalue-minimisations  :  2796
 total energy-change (2. order) :-0.2161157E+01  (-0.4895068E+02)
 number of electron       3.0000000 magnetization
 augmentation part        3.0000000 magnetization

 Free energy of the ion-electron system (eV)
  alpha Z        PSCENC =        -0.21391158
  Ewald energy   TEWEN  =       -74.74079779
  -1/2 Hartree   DENC   =        -0.11606305
  -exchange  EXHF       =         0.00000000
  -V(xc)+E(xc)   XCENC  =       -26.03027837
  PAW double counting   =        35.98065828       -4.05046090
  entropy T*S    EENTRO =         0.00018389
  eigenvalues    EBANDS =        13.47335045
  atomic energy  EATOM  =        53.53616173
  free energy    TOTEN  =        -2.16115734 eV

  energy without entropy =       -2.16134123  energy(sigma->0) =       -2.16121864

[...]

----------------------------------------- Iteration    1(   6)  ---------------------------------------

 eigenvalue-minimisations  :  2176
 total energy-change (2. order) :-0.8850805E-09  (-0.9022457E-09)
 number of electron       3.0000000 magnetization
 augmentation part        3.0000000 magnetization

 Free energy of the ion-electron system (eV)
  alpha Z        PSCENC =        -0.21391158
  Ewald energy   TEWEN  =       -74.74079779
  -1/2 Hartree   DENC   =        -0.11606305
  -exchange  EXHF       =         0.00000000
  -V(xc)+E(xc)   XCENC  =       -26.03027837
  PAW double counting   =        35.98065828       -4.05046090
  entropy T*S    EENTRO =         0.00028396
  eigenvalues    EBANDS =        11.28552492
  atomic energy  EATOM  =        53.53616173
  free energy    TOTEN  =        -4.34888279 eV

  energy without entropy =       -4.34916675  energy(sigma->0) =       -4.34897745

 average (electrostatic) potential at core
  the test charge radii are     1.0406
  (the norm of the test charge is              1.0000)
       1 -72.0146

 E-fermi :   7.7807     XC(G=0): -10.3764     alpha+bet :-15.6325

 k-point   1 :       0.5000    0.0000    0.5000
  band No.  band energies     occupation
      1       5.4880      2.00000
      2       6.9239      2.00000
      3      13.8318      0.00000
      4      14.3641      0.00000
      5      14.3641      0.00000
      6      18.0998      0.00000
      7      34.9115      0.00000
      8      36.5061      0.00000
      9      36.5062      0.00000
     10      42.0762      0.00000
     11      43.1910      0.00000
     12      43.1967      0.00000

[...]

 k-point 100 :       0.0000    0.0000    0.0000
  band No.  band energies     occupation
      1      -2.9508      2.00000
      2      21.5023      0.00000
      3      21.5023      0.00000
      4      21.5023      0.00000
      5      23.3078      0.00000
      6      23.3078      0.00000
      7      23.3079      0.00000
      8      25.3692      0.00000
      9      28.6708      0.00000
     10      28.6708      0.00000
     11      31.5495      0.00000
     12      33.9421      0.00000

 soft charge-density along one line, spin component           1
         0         1         2         3         4         5         6         7         8         9
 total charge-density along one line

------------------------ aborting loop because EDIFF is reached ----------------------------------------

  FORCE on cell =-STRESS in cart. coord.  units (eV):
  Direction    XX          YY          ZZ          XY          YZ          ZX
  Alpha Z    -0.21391    -0.21391    -0.21391
  Ewald     -24.91360   -24.91360   -24.91360     0.00000     0.00000     0.00000
  Hartree     0.05118     0.05118     0.05118     0.00000     0.00000     0.00000
  E(xc)      -8.66377    -8.66377    -8.66377     0.00001     0.00001     0.00001
  Local       0.77241     0.77241     0.77241     0.00000     0.00000     0.00000
  n-local    16.87859    17.64979    19.40750     0.01955    -0.32599    -0.30748
  augment    -0.75049    -0.75049    -0.75049     0.00000     0.00000     0.00000
  Kinetic    11.22151    17.54539    16.70763     9.58393     3.67912     4.63023
  Fock        0.00000     0.00000     0.00000     0.00000     0.00000     0.00000
  Total      -0.58138    -0.58138    -0.58138     0.00000     0.00000     0.00000
  in kB     -59.32249   -59.32249   -59.32249     0.00000     0.00000     0.00000

 VOLUME and BASIS-vectors are now :
  energy-cutoff  :      250.00
  volume of cell :       15.70
      direct lattice vectors                 reciprocal lattice vectors
     0.000000000  1.987500000  1.987500000    -0.251572327  0.251572327  0.251572327
     1.987500000  0.000000000  1.987500000     0.251572327 -0.251572327  0.251572327
     1.987500000  1.987500000  0.000000000     0.251572327  0.251572327 -0.251572327

  length of vectors
     2.810749455  2.810749455  2.810749455     0.435736052  0.435736052  0.435736052

 FORCES acting on ions
    electron-ion (+dipol)            ewald-force                    non-local-force                 convergence-correction
   -.268E-14 0.130E-14 0.133E-14   0.125E-15 0.427E-16 -.332E-15   0.993E-23 0.331E-23 0.993E-23   -.328E-17 0.316E-17 0.796E-18
   -.268E-14 0.130E-14 0.133E-14   0.125E-15 0.427E-16 -.332E-15   0.993E-23 0.331E-23 0.993E-23   -.328E-17 0.316E-17 0.796E-18

 POSITION                                       TOTAL-FORCE (eV/Angst)
      0.00000      0.00000      0.00000         0.000000      0.000000      0.000000
    total drift:                                0.000000      0.000000      0.000000

  FREE ENERGIE OF THE ION-ELECTRON SYSTEM (eV)
  free  energy   TOTEN  =        -4.34888279 eV

  energy  without entropy=       -4.34916675  energy(sigma->0) =       -4.34897745

 stress matrix after NEB project (eV)
     -0.58138      0.00000      0.00000
      0.00000     -0.58138      0.00000
      0.00000      0.00000     -0.58138
  FORCES: max atom, RMS     0.000000    0.000000
  FORCE total and by dimension    0.000000    0.000000
  Stress total and by dimension    1.006980    0.581380
 writing wavefunctions